
Gurobi 7.5.2 (linux64) logging started Sat Jul  7 16:00:08 2018

Changed value of parameter LogFile to result/ilp/simNo_2-n_100-m_40-s_4-minVAF_0.05-cov_10000-k_2-fn_0.10-fp_0.0001-na_0.15.ILP.gurobiSolverLog
   Prev: gurobi.log  Default: 
Changed value of parameter TimeLimit to 86400.0
   Prev: 1e+100  Min: 0.0  Max: 1e+100  Default: 1e+100
Optimize a model with 639293 rows, 10765 columns and 1940420 nonzeros
Variable types: 0 continuous, 10765 integer (10765 binary)
Coefficient statistics:
  Matrix range     [2e-04, 4e+00]
  Objective range  [5e-01, 9e+00]
  Bounds range     [1e+00, 1e+00]
  RHS range        [2e-01, 2e+00]
Found heuristic solution: objective -20323.94360
Presolve removed 120831 rows and 942 columns (presolve time = 5s) ...
Presolve removed 121328 rows and 942 columns (presolve time = 10s) ...
Presolve removed 171028 rows and 1439 columns (presolve time = 15s) ...
Presolve removed 171028 rows and 1439 columns
Presolve time: 15.84s
Presolved: 468265 rows, 9326 columns, 1410152 nonzeros
Variable types: 0 continuous, 9326 integer (9326 binary)
Presolved: 9326 rows, 477591 columns, 1419478 nonzeros

Presolve removed 9326 rows and 477591 columns

Root simplex log...

Iteration    Objective       Primal Inf.    Dual Inf.      Time
       0    1.7204638e+01   0.000000e+00   1.008030e+05     20s
    5152   -6.4858889e+01   0.000000e+00   4.705887e+04     20s
   25525   -2.9528946e+02   0.000000e+00   1.296039e+05     25s
   45343   -3.6734754e+02   0.000000e+00   1.150250e+05     30s
   59639   -4.0135651e+02   0.000000e+00   0.000000e+00     35s
   59639   -4.0135651e+02   0.000000e+00   0.000000e+00     37s

Root relaxation: objective -4.013565e+02, 59639 iterations, 19.00 seconds
Total elapsed time = 102.28s
Total elapsed time = 190.03s
Total elapsed time = 254.38s

    Nodes    |    Current Node    |     Objective Bounds      |     Work
 Expl Unexpl |  Obj  Depth IntInf | Incumbent    BestBd   Gap | It/Node Time

     0     0 -401.35651    0 2600 -20323.944 -401.35651  98.0%     -  262s
H    0     0                    -588.1197358 -401.35651  31.8%     -  267s
H    0     0                    -540.3015670 -401.35651  25.7%     -  268s
     0     0 -406.21887    0 2624 -540.30157 -406.21887  24.8%     - 1260s
H    0     0                    -498.1766651 -406.21887  18.5%     - 1275s
H    0     0                    -496.0549074 -406.21887  18.1%     - 1277s
     0     0 -406.35148    0 2623 -496.05491 -406.35148  18.1%     - 1283s
     0     0 -409.32254    0 2697 -496.05491 -409.32254  17.5%     - 2338s
H    0     0                    -487.5678764 -409.32254  16.0%     - 2341s
     0     0 -409.68961    0 2688 -487.56788 -409.68961  16.0%     - 2371s
     0     0 -409.89951    0 2712 -487.56788 -409.89951  15.9%     - 2420s
     0     0 -409.98936    0 2722 -487.56788 -409.98936  15.9%     - 2436s
     0     0 -410.43127    0 2725 -487.56788 -410.43127  15.8%     - 2461s
H    0     0                    -481.2026032 -410.43127  14.7%     - 2465s
     0     0 -410.43127    0 2727 -481.20260 -410.43127  14.7%     - 2466s
     0     0 -413.07265    0 2664 -481.20260 -413.07265  14.2%     - 4751s
     0     0 -413.09679    0 2635 -481.20260 -413.09679  14.2%     - 4774s
     0     0 -415.04545    0 2626 -481.20260 -415.04545  13.7%     - 5185s
     0     0 -415.05335    0 2659 -481.20260 -415.05335  13.7%     - 5205s
     0     0 -415.05335    0 2661 -481.20260 -415.05335  13.7%     - 5209s
     0     0 -415.78561    0 2647 -481.20260 -415.78561  13.6%     - 6091s
H    0     0                    -474.8373299 -415.78561  12.4%     - 6100s
     0     0 -415.97283    0 2580 -474.83733 -415.97283  12.4%     - 6166s
     0     0 -416.00819    0 2580 -474.83733 -416.00819  12.4%     - 6180s
     0     0 -416.00819    0 2582 -474.83733 -416.00819  12.4%     - 6184s
     0     0 -417.42494    0 2597 -474.83733 -417.42494  12.1%     - 7633s
     0     0 -417.70784    0 2596 -474.83733 -417.70784  12.0%     - 7669s
     0     0 -417.70784    0 2596 -474.83733 -417.70784  12.0%     - 7677s
     0     0 -418.68808    0 2564 -474.83733 -418.68808  11.8%     - 10823s
     0     0 -419.08071    0 2506 -474.83733 -419.08071  11.7%     - 10878s
     0     0 -419.67009    0 2508 -474.83733 -419.67009  11.6%     - 11023s
     0     0 -419.67009    0 2514 -474.83733 -419.67009  11.6%     - 11026s
     0     0 -420.66132    0 2521 -474.83733 -420.66132  11.4%     - 11386s
     0     0 -421.35509    0 2490 -474.83733 -421.35509  11.3%     - 11708s
     0     0 -421.35509    0 2501 -474.83733 -421.35509  11.3%     - 11713s
     0     0 -422.46908    0 2505 -474.83733 -422.46908  11.0%     - 14142s
H    0     0                    -472.7155722 -422.46908  10.6%     - 14149s
     0     0 -422.49376    0 2488 -472.71557 -422.49376  10.6%     - 14156s
     0     0 -422.80682    0 2486 -472.71557 -422.80682  10.6%     - 14263s
     0     0 -422.88353    0 2492 -472.71557 -422.88353  10.5%     - 14281s
     0     0 -422.89012    0 2493 -472.71557 -422.89012  10.5%     - 14289s
     0     0 -422.89012    0 2493 -472.71557 -422.89012  10.5%     - 14292s
     0     0 -424.80105    0 2549 -472.71557 -424.80105  10.1%     - 15703s
H    0     0                    -470.5938144 -424.80105  9.73%     - 15712s
     0     0 -424.95714    0 2536 -470.59381 -424.95714  9.70%     - 15732s
     0     0 -424.98794    0 2537 -470.59381 -424.98794  9.69%     - 15743s
     0     0 -424.99028    0 2537 -470.59381 -424.99028  9.69%     - 15748s
     0     0 -425.97259    0 2543 -470.59381 -425.97259  9.48%     - 16293s
     0     0 -426.13290    0 2535 -470.59381 -426.13290  9.45%     - 16357s
     0     0 -426.32371    0 2551 -470.59381 -426.32371  9.41%     - 16458s
     0     0 -426.32371    0 2552 -470.59381 -426.32371  9.41%     - 16462s
     0     0 -428.71522    0 2558 -470.59381 -428.71522  8.90%     - 24851s
     0     0 -429.28102    0 2559 -470.59381 -429.28102  8.78%     - 25110s
     0     0 -429.28102    0 2557 -470.59381 -429.28102  8.78%     - 25120s
     0     0 -429.28102    0 2567 -470.59381 -429.28102  8.78%     - 25149s
     0     0 -429.28102    0 2558 -470.59381 -429.28102  8.78%     - 25179s
     0     0 -429.62234    0 2562 -470.59381 -429.62234  8.71%     - 25614s
H    0     0                    -468.4720567 -429.62234  8.29%     - 25654s
     0     0 -429.70055    0 2551 -468.47206 -429.70055  8.28%     - 25696s
     0     0 -429.70363    0 2557 -468.47206 -429.70363  8.28%     - 25717s
     0     0 -429.70692    0 2558 -468.47206 -429.70692  8.27%     - 25731s
     0     0 -429.70692    0 2558 -468.47206 -429.70692  8.27%     - 25736s
     0     0 -430.46806    0 2553 -468.47206 -430.46806  8.11%     - 25941s
     0     0 -430.71666    0 2551 -468.47206 -430.71666  8.06%     - 26139s
     0     0 -430.72078    0 2550 -468.47206 -430.72078  8.06%     - 26166s
     0     0 -430.72127    0 2553 -468.47206 -430.72127  8.06%     - 26177s
     0     0 -430.79672    0 2550 -468.47206 -430.79672  8.04%     - 26244s
     0     0 -430.82121    0 2552 -468.47206 -430.82121  8.04%     - 26363s
     0     0 -430.82121    0 2555 -468.47206 -430.82121  8.04%     - 26369s
     0     0 -430.90197    0 2561 -468.47206 -430.90197  8.02%     - 26530s
     0     0 -430.90912    0 2567 -468.47206 -430.90912  8.02%     - 26610s
     0     0 -430.90916    0 2568 -468.47206 -430.90916  8.02%     - 26622s
     0     0 -430.94077    0 2566 -468.47206 -430.94077  8.01%     - 26662s
     0     0 -430.99404    0 2565 -468.47206 -430.99404  8.00%     - 26836s
     0     0 -430.99405    0 2567 -468.47206 -430.99405  8.00%     - 26844s
     0     0 -431.02736    0 2569 -468.47206 -431.02736  7.99%     - 26889s
     0     0 -431.02854    0 2566 -468.47206 -431.02854  7.99%     - 26980s
     0     0 -431.08039    0 2555 -468.47206 -431.08039  7.98%     - 27110s
     0     0 -431.37882    0 2561 -468.47206 -431.37882  7.92%     - 27665s
     0     0 -431.45928    0 2558 -468.47206 -431.45928  7.90%     - 27712s
     0     0 -431.47130    0 2560 -468.47206 -431.47130  7.90%     - 27729s
     0     0 -431.47130    0 2561 -468.47206 -431.47130  7.90%     - 27734s
     0     0 -431.47608    0 2555 -468.47206 -431.47608  7.90%     - 27764s
     0     0 -431.47635    0 2560 -468.47206 -431.47635  7.90%     - 27852s
     0     0 -431.47635    0 2558 -468.47206 -431.47635  7.90%     - 27874s
     0     0 -431.84000    0 2556 -468.47206 -431.84000  7.82%     - 28469s
     0     0 -431.84000    0 2552 -468.47206 -431.84000  7.82%     - 28476s
     0     0 -431.85415    0 2529 -468.47206 -431.85415  7.82%     - 29796s
     0     0 -431.85560    0 2547 -468.47206 -431.85560  7.82%     - 29896s
     0     0 -431.92854    0 2547 -468.47206 -431.92854  7.80%     - 29916s
H    0     0                    -466.3502989 -431.92854  7.38%     - 29956s
     0     0 -431.92884    0 2549 -466.35030 -431.92884  7.38%     - 29959s
     0     0 -432.21195    0 2549 -466.35030 -432.21195  7.32%     - 29980s
     0     0 -432.21669    0 2546 -466.35030 -432.21669  7.32%     - 30007s
     0     0 -432.22258    0 2550 -466.35030 -432.22258  7.32%     - 30012s
     0     0 -432.23386    0 2555 -466.35030 -432.23386  7.32%     - 30017s
     0     0 -432.23386    0 2556 -466.35030 -432.23386  7.32%     - 30020s
     0     0 -432.47192    0 2555 -466.35030 -432.47192  7.26%     - 30055s
     0     0 -432.55615    0 2554 -466.35030 -432.55615  7.25%     - 30133s
     0     0 -432.56480    0 2558 -466.35030 -432.56480  7.24%     - 30143s
     0     0 -432.57869    0 2556 -466.35030 -432.57869  7.24%     - 30150s
     0     0 -432.57872    0 2556 -466.35030 -432.57872  7.24%     - 30153s
     0     0 -432.57946    0 2561 -466.35030 -432.57946  7.24%     - 30168s
     0     0 -432.59190    0 2560 -466.35030 -432.59190  7.24%     - 30271s
     0     0 -432.59190    0 2559 -466.35030 -432.59190  7.24%     - 30275s
     0     0 -432.59190    0 2558 -466.35030 -432.59190  7.24%     - 30291s
     0     0 -432.59190    0 2558 -466.35030 -432.59190  7.24%     - 30402s
     0     0 -433.03851    0 2343 -466.35030 -433.03851  7.14%     - 31212s
     0     0 -433.04021    0 2373 -466.35030 -433.04021  7.14%     - 31239s
     0     0 -433.33815    0 2396 -466.35030 -433.33815  7.08%     - 31414s
     0     0 -433.69606    0 2395 -466.35030 -433.69606  7.00%     - 31746s
     0     0 -433.74474    0 2407 -466.35030 -433.74474  6.99%     - 31802s
     0     0 -433.77616    0 2416 -466.35030 -433.77616  6.98%     - 31851s
     0     0 -433.79007    0 2417 -466.35030 -433.79007  6.98%     - 31873s
     0     0 -433.79380    0 2408 -466.35030 -433.79380  6.98%     - 31882s
     0     0 -433.79586    0 2422 -466.35030 -433.79586  6.98%     - 31887s
     0     0 -433.79812    0 2428 -466.35030 -433.79812  6.98%     - 31904s
     0     0 -433.79911    0 2433 -466.35030 -433.79911  6.98%     - 31991s
     0     0 -433.79911    0 2439 -466.35030 -433.79911  6.98%     - 32005s
     0     0 -433.79911    0 2441 -466.35030 -433.79911  6.98%     - 32067s
     0     0 -433.80026    0 2371 -466.35030 -433.80026  6.98%     - 32467s
     0     0 -433.80026    0 2371 -466.35030 -433.80026  6.98%     - 32522s
     0     2 -433.80053    0 2371 -466.35030 -433.80053  6.98%     - 33134s
     1     3 -439.46283    1 1426 -466.35030 -433.80123  6.98% 54352 33703s
     2     4 -446.27222    2  906 -466.35030 -433.80123  6.98% 33904 33932s
     3     5 -446.56691    3  943 -466.35030 -433.80123  6.98% 23004 33942s
     4     6 -465.16537    3  394 -466.35030 -433.80123  6.98% 20222 34134s
     5     7 -447.15629    4  820 -466.35030 -433.80123  6.98% 16359 34141s
     6     8 -461.65496    4   40 -466.35030 -433.80123  6.98% 17764 34544s
     7     9 -461.65496    5   39 -466.35030 -433.80123  6.98% 15239 34546s
H    8     6                    -461.6549647 -433.80123  6.03% 13334 34553s
     8     6     cutoff    6      -461.65496 -433.80123  6.03% 13339 34556s
    10     5 -442.49158    1 1478 -461.65496 -439.46712  4.81% 13794 35210s
    11     6 -453.75105    2 1632 -461.65496 -439.46712  4.81% 16351 36022s
    12     5     cutoff    2      -461.65496 -439.46712  4.81% 23624 38020s
    13     6 -453.99486    3 1150 -461.65496 -439.46712  4.81% 22015 38039s
    14     7 -454.79832    4 1131 -461.65496 -439.46712  4.81% 20654 38062s
    15     8 -455.45357    5 1042 -461.65496 -439.46712  4.81% 19339 38070s
    16     7     cutoff    5      -461.65496 -439.46712  4.81% 18513 38143s
    17     8 -455.98401    6 1036 -461.65496 -439.46712  4.81% 17453 38150s
    19     8 -457.04489    7  823 -461.65496 -439.46712  4.81% 15671 38163s
    20     9 -457.84055    8 1063 -461.65496 -439.46712  4.81% 15092 38209s
    21    10 -458.58798    9 1054 -461.65496 -439.46712  4.81% 14401 38214s
    22    11 -459.16664   10 1014 -461.65496 -439.46712  4.81% 13765 38219s
    23    10     cutoff   10      -461.65496 -439.46712  4.81% 13287 38239s
    24    11 -459.16664   11  934 -461.65496 -439.46712  4.81% 12742 38297s
    26    11 -459.16664   12  941 -461.65496 -439.46712  4.81% 11785 38301s
    27    12 -460.22752   13  873 -461.65496 -439.46712  4.81% 11356 38310s
    31    10     cutoff   15      -461.65496 -439.46712  4.81%  9911 38315s
    33    10 -440.72044    2 1339 -461.65496 -440.72044  4.53%  9853 38590s
    34    11 -449.03609    3 1066 -461.65496 -440.72444  4.53% 37147 73945s
    35    12 -450.09697    4 1086 -461.65496 -440.72444  4.53% 36363 74111s
    36    13 -451.68829    5 1069 -461.65496 -440.72444  4.53% 35464 74197s

Cutting planes:
  Gomory: 1
  MIR: 9
  StrongCG: 1
  Zero half: 412

Explored 37 nodes (2498095 simplex iterations) in 86400.13 seconds
Thread count was 1 (of 80 available processors)

Solution count 10: -461.655 -466.35 -468.472 ... -498.177

Time limit reached
Best objective -4.616549647064e+02, best bound -4.407244428020e+02, gap 4.5338%
